 0  2  3 55  6 44 33 34  4 55 23  4  5 59 56 
 5  0 11 21 12 14 11 12 10 19  8 19 22 19 11
34  0  0 22 22 34 41 12 60  9 10 11 12 21 81
24  2 11  0 82 84 21 12 16 19 12 88 12 12 10
 4  3 21 13  0 34 43 12 15 29 12 21 22 33  9
14  5 20 53 82  0 41 12 50 19  9  9  7 11 12
 4 11 66 63 92 30  0 22 12 39 11 11 12 21 33 
22 32 12 73 22 34 41  0 14 49 23 44 44 41 12
24 12 16 13 22 20 20 22  0 39 33 43 43 14 10
54 15 66 53 52 35 10 42 42  0 23 32 21 12 34
12 54 15 66 53 52 35 10 42 12  0 23 32 21 12 
44 64 24 15 66 53 52 35 10 42 22  0 23 32 21 
90 19 20 54 15 66 23 52 35 10 42 45  0 23 32
12  9 12 31 54 15 62 53 52 35 10 44 42  0 23 
19 18  9 23 33 54 15 66 33 52 45 14 42 42  0 
 
